p cnf 282 1286
c p weight 116 0 0
c p weight -116 1 0
c p weight 117 1 0
c p weight -117 1 0
c p weight 279 -1 0
c p weight -279 1 0
c p weight 282 0.5 0
282 0
-111 0
-109 0
-107 0
-105 0
-103 0
-101 0
-99 0
-97 0
-95 0
-93 0
-91 0
-89 0
-87 0
-85 0
-83 0
-81 0
-79 0
-77 0
-75 0
-73 0
-71 0
-69 0
-67 0
-65 0
-63 0
-61 0
-59 0
-57 0
-55 0
-53 0
-51 0
-49 0
-47 0
-45 0
-43 0
-41 0
-39 0
-37 0
-35 0
-33 0
-31 0
-29 0
-27 0
-25 0
-23 0
-21 0
-19 0
-17 0
-15 0
-13 0
-11 0
-9 0
-7 0
-5 0
-3 0
-1 0
112 -111 109 0
112 -111 110 0
-112 111 109 0
-112 111 110 0
112 111 -109 -110 0
-112 -111 -109 -110 0
113 109 -110 0
113 -109 110 0
-113 109 110 0
-113 -109 -110 0
114 115 -112 0
114 -112 113 0
-114 115 112 0
-114 112 113 0
114 -112 -109 0
-114 112 -109 0
114 -115 112 109 -113 0
-114 -115 -112 109 -113 0
115 -109 113 0
-115 109 113 0
-116 113 0
115 -116 -109 0
-115 -116 109 0
115 116 109 -113 0
-115 116 -109 -113 0
-117 113 0
115 -117 109 0
-115 -117 -109 0
115 117 -109 -113 0
-115 117 109 -113 0
118 -114 115 0
118 -114 113 0
-118 114 115 0
-118 114 113 0
118 114 -115 -113 0
-118 -114 -115 -113 0
119 115 -113 0
119 -115 113 0
-119 115 113 0
-119 -115 -113 0
120 -118 115 0
120 -118 108 0
-120 118 115 0
-120 118 108 0
120 -118 107 -119 0
120 -118 -107 119 0
-120 118 107 -119 0
-120 118 -107 119 0
120 118 -115 107 119 -108 0
120 118 -115 -107 -119 -108 0
-120 -118 -115 107 119 -108 0
-120 -118 -115 -107 -119 -108 0
122 115 -107 0
122 -115 107 0
-122 115 107 0
-122 -115 -107 0
121 119 -108 0
121 -119 108 0
-121 119 108 0
-121 -119 -108 0
123 -120 122 0
123 -120 106 0
-123 120 122 0
-123 120 106 0
123 -120 105 -108 0
123 -120 -105 108 0
-123 120 105 -108 0
-123 120 -105 108 0
123 120 -122 105 108 -106 0
123 120 -122 -105 -108 -106 0
-123 -120 -122 105 108 -106 0
-123 -120 -122 -105 -108 -106 0
125 122 -105 0
125 -122 105 0
-125 122 105 0
-125 -122 -105 0
124 108 -106 0
124 -108 106 0
-124 108 106 0
-124 -108 -106 0
126 -123 125 0
126 -123 104 0
-126 123 125 0
-126 123 104 0
126 -123 103 -106 0
126 -123 -103 106 0
-126 123 103 -106 0
-126 123 -103 106 0
126 123 -125 103 106 -104 0
126 123 -125 -103 -106 -104 0
-126 -123 -125 103 106 -104 0
-126 -123 -125 -103 -106 -104 0
128 125 -103 0
128 -125 103 0
-128 125 103 0
-128 -125 -103 0
127 106 -104 0
127 -106 104 0
-127 106 104 0
-127 -106 -104 0
129 -126 128 0
129 -126 102 0
-129 126 128 0
-129 126 102 0
129 -126 101 -104 0
129 -126 -101 104 0
-129 126 101 -104 0
-129 126 -101 104 0
129 126 -128 101 104 -102 0
129 126 -128 -101 -104 -102 0
-129 -126 -128 101 104 -102 0
-129 -126 -128 -101 -104 -102 0
131 128 -101 0
131 -128 101 0
-131 128 101 0
-131 -128 -101 0
130 104 -102 0
130 -104 102 0
-130 104 102 0
-130 -104 -102 0
132 -129 131 0
132 -129 100 0
-132 129 131 0
-132 129 100 0
132 -129 99 -102 0
132 -129 -99 102 0
-132 129 99 -102 0
-132 129 -99 102 0
132 129 -131 99 102 -100 0
132 129 -131 -99 -102 -100 0
-132 -129 -131 99 102 -100 0
-132 -129 -131 -99 -102 -100 0
134 131 -99 0
134 -131 99 0
-134 131 99 0
-134 -131 -99 0
133 102 -100 0
133 -102 100 0
-133 102 100 0
-133 -102 -100 0
135 -132 134 0
135 -132 98 0
-135 132 134 0
-135 132 98 0
135 -132 97 -100 0
135 -132 -97 100 0
-135 132 97 -100 0
-135 132 -97 100 0
135 132 -134 97 100 -98 0
135 132 -134 -97 -100 -98 0
-135 -132 -134 97 100 -98 0
-135 -132 -134 -97 -100 -98 0
137 134 -97 0
137 -134 97 0
-137 134 97 0
-137 -134 -97 0
136 100 -98 0
136 -100 98 0
-136 100 98 0
-136 -100 -98 0
138 -135 137 0
138 -135 96 0
-138 135 137 0
-138 135 96 0
138 -135 95 -98 0
138 -135 -95 98 0
-138 135 95 -98 0
-138 135 -95 98 0
138 135 -137 95 98 -96 0
138 135 -137 -95 -98 -96 0
-138 -135 -137 95 98 -96 0
-138 -135 -137 -95 -98 -96 0
140 137 -95 0
140 -137 95 0
-140 137 95 0
-140 -137 -95 0
139 98 -96 0
139 -98 96 0
-139 98 96 0
-139 -98 -96 0
141 -138 140 0
141 -138 94 0
-141 138 140 0
-141 138 94 0
141 -138 93 -96 0
141 -138 -93 96 0
-141 138 93 -96 0
-141 138 -93 96 0
141 138 -140 93 96 -94 0
141 138 -140 -93 -96 -94 0
-141 -138 -140 93 96 -94 0
-141 -138 -140 -93 -96 -94 0
143 140 -93 0
143 -140 93 0
-143 140 93 0
-143 -140 -93 0
142 96 -94 0
142 -96 94 0
-142 96 94 0
-142 -96 -94 0
144 -141 143 0
144 -141 92 0
-144 141 143 0
-144 141 92 0
144 -141 91 -94 0
144 -141 -91 94 0
-144 141 91 -94 0
-144 141 -91 94 0
144 141 -143 91 94 -92 0
144 141 -143 -91 -94 -92 0
-144 -141 -143 91 94 -92 0
-144 -141 -143 -91 -94 -92 0
146 143 -91 0
146 -143 91 0
-146 143 91 0
-146 -143 -91 0
145 94 -92 0
145 -94 92 0
-145 94 92 0
-145 -94 -92 0
147 -144 146 0
147 -144 90 0
-147 144 146 0
-147 144 90 0
147 -144 89 -92 0
147 -144 -89 92 0
-147 144 89 -92 0
-147 144 -89 92 0
147 144 -146 89 92 -90 0
147 144 -146 -89 -92 -90 0
-147 -144 -146 89 92 -90 0
-147 -144 -146 -89 -92 -90 0
149 146 -89 0
149 -146 89 0
-149 146 89 0
-149 -146 -89 0
148 92 -90 0
148 -92 90 0
-148 92 90 0
-148 -92 -90 0
150 -147 149 0
150 -147 88 0
-150 147 149 0
-150 147 88 0
150 -147 87 -90 0
150 -147 -87 90 0
-150 147 87 -90 0
-150 147 -87 90 0
150 147 -149 87 90 -88 0
150 147 -149 -87 -90 -88 0
-150 -147 -149 87 90 -88 0
-150 -147 -149 -87 -90 -88 0
152 149 -87 0
152 -149 87 0
-152 149 87 0
-152 -149 -87 0
151 90 -88 0
151 -90 88 0
-151 90 88 0
-151 -90 -88 0
153 -150 152 0
153 -150 86 0
-153 150 152 0
-153 150 86 0
153 -150 85 -88 0
153 -150 -85 88 0
-153 150 85 -88 0
-153 150 -85 88 0
153 150 -152 85 88 -86 0
153 150 -152 -85 -88 -86 0
-153 -150 -152 85 88 -86 0
-153 -150 -152 -85 -88 -86 0
155 152 -85 0
155 -152 85 0
-155 152 85 0
-155 -152 -85 0
154 88 -86 0
154 -88 86 0
-154 88 86 0
-154 -88 -86 0
156 -153 155 0
156 -153 84 0
-156 153 155 0
-156 153 84 0
156 -153 83 -86 0
156 -153 -83 86 0
-156 153 83 -86 0
-156 153 -83 86 0
156 153 -155 83 86 -84 0
156 153 -155 -83 -86 -84 0
-156 -153 -155 83 86 -84 0
-156 -153 -155 -83 -86 -84 0
158 155 -83 0
158 -155 83 0
-158 155 83 0
-158 -155 -83 0
157 86 -84 0
157 -86 84 0
-157 86 84 0
-157 -86 -84 0
159 -156 158 0
159 -156 82 0
-159 156 158 0
-159 156 82 0
159 -156 81 -84 0
159 -156 -81 84 0
-159 156 81 -84 0
-159 156 -81 84 0
159 156 -158 81 84 -82 0
159 156 -158 -81 -84 -82 0
-159 -156 -158 81 84 -82 0
-159 -156 -158 -81 -84 -82 0
161 158 -81 0
161 -158 81 0
-161 158 81 0
-161 -158 -81 0
160 84 -82 0
160 -84 82 0
-160 84 82 0
-160 -84 -82 0
162 -159 161 0
162 -159 80 0
-162 159 161 0
-162 159 80 0
162 -159 79 -82 0
162 -159 -79 82 0
-162 159 79 -82 0
-162 159 -79 82 0
162 159 -161 79 82 -80 0
162 159 -161 -79 -82 -80 0
-162 -159 -161 79 82 -80 0
-162 -159 -161 -79 -82 -80 0
164 161 -79 0
164 -161 79 0
-164 161 79 0
-164 -161 -79 0
163 82 -80 0
163 -82 80 0
-163 82 80 0
-163 -82 -80 0
165 -162 164 0
165 -162 78 0
-165 162 164 0
-165 162 78 0
165 -162 77 -80 0
165 -162 -77 80 0
-165 162 77 -80 0
-165 162 -77 80 0
165 162 -164 77 80 -78 0
165 162 -164 -77 -80 -78 0
-165 -162 -164 77 80 -78 0
-165 -162 -164 -77 -80 -78 0
167 164 -77 0
167 -164 77 0
-167 164 77 0
-167 -164 -77 0
166 80 -78 0
166 -80 78 0
-166 80 78 0
-166 -80 -78 0
168 -165 167 0
168 -165 76 0
-168 165 167 0
-168 165 76 0
168 -165 75 -78 0
168 -165 -75 78 0
-168 165 75 -78 0
-168 165 -75 78 0
168 165 -167 75 78 -76 0
168 165 -167 -75 -78 -76 0
-168 -165 -167 75 78 -76 0
-168 -165 -167 -75 -78 -76 0
170 167 -75 0
170 -167 75 0
-170 167 75 0
-170 -167 -75 0
169 78 -76 0
169 -78 76 0
-169 78 76 0
-169 -78 -76 0
171 -168 170 0
171 -168 74 0
-171 168 170 0
-171 168 74 0
171 -168 73 -76 0
171 -168 -73 76 0
-171 168 73 -76 0
-171 168 -73 76 0
171 168 -170 73 76 -74 0
171 168 -170 -73 -76 -74 0
-171 -168 -170 73 76 -74 0
-171 -168 -170 -73 -76 -74 0
173 170 -73 0
173 -170 73 0
-173 170 73 0
-173 -170 -73 0
172 76 -74 0
172 -76 74 0
-172 76 74 0
-172 -76 -74 0
174 -171 173 0
174 -171 72 0
-174 171 173 0
-174 171 72 0
174 -171 71 -74 0
174 -171 -71 74 0
-174 171 71 -74 0
-174 171 -71 74 0
174 171 -173 71 74 -72 0
174 171 -173 -71 -74 -72 0
-174 -171 -173 71 74 -72 0
-174 -171 -173 -71 -74 -72 0
176 173 -71 0
176 -173 71 0
-176 173 71 0
-176 -173 -71 0
175 74 -72 0
175 -74 72 0
-175 74 72 0
-175 -74 -72 0
177 -174 176 0
177 -174 70 0
-177 174 176 0
-177 174 70 0
177 -174 69 -72 0
177 -174 -69 72 0
-177 174 69 -72 0
-177 174 -69 72 0
177 174 -176 69 72 -70 0
177 174 -176 -69 -72 -70 0
-177 -174 -176 69 72 -70 0
-177 -174 -176 -69 -72 -70 0
179 176 -69 0
179 -176 69 0
-179 176 69 0
-179 -176 -69 0
178 72 -70 0
178 -72 70 0
-178 72 70 0
-178 -72 -70 0
180 -177 179 0
180 -177 68 0
-180 177 179 0
-180 177 68 0
180 -177 67 -70 0
180 -177 -67 70 0
-180 177 67 -70 0
-180 177 -67 70 0
180 177 -179 67 70 -68 0
180 177 -179 -67 -70 -68 0
-180 -177 -179 67 70 -68 0
-180 -177 -179 -67 -70 -68 0
182 179 -67 0
182 -179 67 0
-182 179 67 0
-182 -179 -67 0
181 70 -68 0
181 -70 68 0
-181 70 68 0
-181 -70 -68 0
183 -180 182 0
183 -180 66 0
-183 180 182 0
-183 180 66 0
183 -180 65 -68 0
183 -180 -65 68 0
-183 180 65 -68 0
-183 180 -65 68 0
183 180 -182 65 68 -66 0
183 180 -182 -65 -68 -66 0
-183 -180 -182 65 68 -66 0
-183 -180 -182 -65 -68 -66 0
185 182 -65 0
185 -182 65 0
-185 182 65 0
-185 -182 -65 0
184 68 -66 0
184 -68 66 0
-184 68 66 0
-184 -68 -66 0
186 -183 185 0
186 -183 64 0
-186 183 185 0
-186 183 64 0
186 -183 63 -66 0
186 -183 -63 66 0
-186 183 63 -66 0
-186 183 -63 66 0
186 183 -185 63 66 -64 0
186 183 -185 -63 -66 -64 0
-186 -183 -185 63 66 -64 0
-186 -183 -185 -63 -66 -64 0
188 185 -63 0
188 -185 63 0
-188 185 63 0
-188 -185 -63 0
187 66 -64 0
187 -66 64 0
-187 66 64 0
-187 -66 -64 0
189 -186 188 0
189 -186 62 0
-189 186 188 0
-189 186 62 0
189 -186 61 -64 0
189 -186 -61 64 0
-189 186 61 -64 0
-189 186 -61 64 0
189 186 -188 61 64 -62 0
189 186 -188 -61 -64 -62 0
-189 -186 -188 61 64 -62 0
-189 -186 -188 -61 -64 -62 0
191 188 -61 0
191 -188 61 0
-191 188 61 0
-191 -188 -61 0
190 64 -62 0
190 -64 62 0
-190 64 62 0
-190 -64 -62 0
192 -189 191 0
192 -189 60 0
-192 189 191 0
-192 189 60 0
192 -189 59 -62 0
192 -189 -59 62 0
-192 189 59 -62 0
-192 189 -59 62 0
192 189 -191 59 62 -60 0
192 189 -191 -59 -62 -60 0
-192 -189 -191 59 62 -60 0
-192 -189 -191 -59 -62 -60 0
194 191 -59 0
194 -191 59 0
-194 191 59 0
-194 -191 -59 0
193 62 -60 0
193 -62 60 0
-193 62 60 0
-193 -62 -60 0
195 -192 194 0
195 -192 58 0
-195 192 194 0
-195 192 58 0
195 -192 57 -60 0
195 -192 -57 60 0
-195 192 57 -60 0
-195 192 -57 60 0
195 192 -194 57 60 -58 0
195 192 -194 -57 -60 -58 0
-195 -192 -194 57 60 -58 0
-195 -192 -194 -57 -60 -58 0
197 194 -57 0
197 -194 57 0
-197 194 57 0
-197 -194 -57 0
196 60 -58 0
196 -60 58 0
-196 60 58 0
-196 -60 -58 0
198 -195 197 0
198 -195 56 0
-198 195 197 0
-198 195 56 0
198 -195 55 -58 0
198 -195 -55 58 0
-198 195 55 -58 0
-198 195 -55 58 0
198 195 -197 55 58 -56 0
198 195 -197 -55 -58 -56 0
-198 -195 -197 55 58 -56 0
-198 -195 -197 -55 -58 -56 0
200 197 -55 0
200 -197 55 0
-200 197 55 0
-200 -197 -55 0
199 58 -56 0
199 -58 56 0
-199 58 56 0
-199 -58 -56 0
201 -198 200 0
201 -198 54 0
-201 198 200 0
-201 198 54 0
201 -198 53 -56 0
201 -198 -53 56 0
-201 198 53 -56 0
-201 198 -53 56 0
201 198 -200 53 56 -54 0
201 198 -200 -53 -56 -54 0
-201 -198 -200 53 56 -54 0
-201 -198 -200 -53 -56 -54 0
203 200 -53 0
203 -200 53 0
-203 200 53 0
-203 -200 -53 0
202 56 -54 0
202 -56 54 0
-202 56 54 0
-202 -56 -54 0
204 -201 203 0
204 -201 52 0
-204 201 203 0
-204 201 52 0
204 -201 51 -54 0
204 -201 -51 54 0
-204 201 51 -54 0
-204 201 -51 54 0
204 201 -203 51 54 -52 0
204 201 -203 -51 -54 -52 0
-204 -201 -203 51 54 -52 0
-204 -201 -203 -51 -54 -52 0
206 203 -51 0
206 -203 51 0
-206 203 51 0
-206 -203 -51 0
205 54 -52 0
205 -54 52 0
-205 54 52 0
-205 -54 -52 0
207 -204 206 0
207 -204 50 0
-207 204 206 0
-207 204 50 0
207 -204 49 -52 0
207 -204 -49 52 0
-207 204 49 -52 0
-207 204 -49 52 0
207 204 -206 49 52 -50 0
207 204 -206 -49 -52 -50 0
-207 -204 -206 49 52 -50 0
-207 -204 -206 -49 -52 -50 0
209 206 -49 0
209 -206 49 0
-209 206 49 0
-209 -206 -49 0
208 52 -50 0
208 -52 50 0
-208 52 50 0
-208 -52 -50 0
210 -207 209 0
210 -207 48 0
-210 207 209 0
-210 207 48 0
210 -207 47 -50 0
210 -207 -47 50 0
-210 207 47 -50 0
-210 207 -47 50 0
210 207 -209 47 50 -48 0
210 207 -209 -47 -50 -48 0
-210 -207 -209 47 50 -48 0
-210 -207 -209 -47 -50 -48 0
212 209 -47 0
212 -209 47 0
-212 209 47 0
-212 -209 -47 0
211 50 -48 0
211 -50 48 0
-211 50 48 0
-211 -50 -48 0
213 -210 212 0
213 -210 46 0
-213 210 212 0
-213 210 46 0
213 -210 45 -48 0
213 -210 -45 48 0
-213 210 45 -48 0
-213 210 -45 48 0
213 210 -212 45 48 -46 0
213 210 -212 -45 -48 -46 0
-213 -210 -212 45 48 -46 0
-213 -210 -212 -45 -48 -46 0
215 212 -45 0
215 -212 45 0
-215 212 45 0
-215 -212 -45 0
214 48 -46 0
214 -48 46 0
-214 48 46 0
-214 -48 -46 0
216 -213 215 0
216 -213 44 0
-216 213 215 0
-216 213 44 0
216 -213 43 -46 0
216 -213 -43 46 0
-216 213 43 -46 0
-216 213 -43 46 0
216 213 -215 43 46 -44 0
216 213 -215 -43 -46 -44 0
-216 -213 -215 43 46 -44 0
-216 -213 -215 -43 -46 -44 0
218 215 -43 0
218 -215 43 0
-218 215 43 0
-218 -215 -43 0
217 46 -44 0
217 -46 44 0
-217 46 44 0
-217 -46 -44 0
219 -216 218 0
219 -216 42 0
-219 216 218 0
-219 216 42 0
219 -216 41 -44 0
219 -216 -41 44 0
-219 216 41 -44 0
-219 216 -41 44 0
219 216 -218 41 44 -42 0
219 216 -218 -41 -44 -42 0
-219 -216 -218 41 44 -42 0
-219 -216 -218 -41 -44 -42 0
221 218 -41 0
221 -218 41 0
-221 218 41 0
-221 -218 -41 0
220 44 -42 0
220 -44 42 0
-220 44 42 0
-220 -44 -42 0
222 -219 221 0
222 -219 40 0
-222 219 221 0
-222 219 40 0
222 -219 39 -42 0
222 -219 -39 42 0
-222 219 39 -42 0
-222 219 -39 42 0
222 219 -221 39 42 -40 0
222 219 -221 -39 -42 -40 0
-222 -219 -221 39 42 -40 0
-222 -219 -221 -39 -42 -40 0
224 221 -39 0
224 -221 39 0
-224 221 39 0
-224 -221 -39 0
223 42 -40 0
223 -42 40 0
-223 42 40 0
-223 -42 -40 0
225 -222 224 0
225 -222 38 0
-225 222 224 0
-225 222 38 0
225 -222 37 -40 0
225 -222 -37 40 0
-225 222 37 -40 0
-225 222 -37 40 0
225 222 -224 37 40 -38 0
225 222 -224 -37 -40 -38 0
-225 -222 -224 37 40 -38 0
-225 -222 -224 -37 -40 -38 0
227 224 -37 0
227 -224 37 0
-227 224 37 0
-227 -224 -37 0
226 40 -38 0
226 -40 38 0
-226 40 38 0
-226 -40 -38 0
228 -225 227 0
228 -225 36 0
-228 225 227 0
-228 225 36 0
228 -225 35 -38 0
228 -225 -35 38 0
-228 225 35 -38 0
-228 225 -35 38 0
228 225 -227 35 38 -36 0
228 225 -227 -35 -38 -36 0
-228 -225 -227 35 38 -36 0
-228 -225 -227 -35 -38 -36 0
230 227 -35 0
230 -227 35 0
-230 227 35 0
-230 -227 -35 0
229 38 -36 0
229 -38 36 0
-229 38 36 0
-229 -38 -36 0
231 -228 230 0
231 -228 34 0
-231 228 230 0
-231 228 34 0
231 -228 33 -36 0
231 -228 -33 36 0
-231 228 33 -36 0
-231 228 -33 36 0
231 228 -230 33 36 -34 0
231 228 -230 -33 -36 -34 0
-231 -228 -230 33 36 -34 0
-231 -228 -230 -33 -36 -34 0
233 230 -33 0
233 -230 33 0
-233 230 33 0
-233 -230 -33 0
232 36 -34 0
232 -36 34 0
-232 36 34 0
-232 -36 -34 0
234 -231 233 0
234 -231 32 0
-234 231 233 0
-234 231 32 0
234 -231 31 -34 0
234 -231 -31 34 0
-234 231 31 -34 0
-234 231 -31 34 0
234 231 -233 31 34 -32 0
234 231 -233 -31 -34 -32 0
-234 -231 -233 31 34 -32 0
-234 -231 -233 -31 -34 -32 0
236 233 -31 0
236 -233 31 0
-236 233 31 0
-236 -233 -31 0
235 34 -32 0
235 -34 32 0
-235 34 32 0
-235 -34 -32 0
237 -234 236 0
237 -234 30 0
-237 234 236 0
-237 234 30 0
237 -234 29 -32 0
237 -234 -29 32 0
-237 234 29 -32 0
-237 234 -29 32 0
237 234 -236 29 32 -30 0
237 234 -236 -29 -32 -30 0
-237 -234 -236 29 32 -30 0
-237 -234 -236 -29 -32 -30 0
239 236 -29 0
239 -236 29 0
-239 236 29 0
-239 -236 -29 0
238 32 -30 0
238 -32 30 0
-238 32 30 0
-238 -32 -30 0
240 -237 239 0
240 -237 28 0
-240 237 239 0
-240 237 28 0
240 -237 27 -30 0
240 -237 -27 30 0
-240 237 27 -30 0
-240 237 -27 30 0
240 237 -239 27 30 -28 0
240 237 -239 -27 -30 -28 0
-240 -237 -239 27 30 -28 0
-240 -237 -239 -27 -30 -28 0
242 239 -27 0
242 -239 27 0
-242 239 27 0
-242 -239 -27 0
241 30 -28 0
241 -30 28 0
-241 30 28 0
-241 -30 -28 0
243 -240 242 0
243 -240 26 0
-243 240 242 0
-243 240 26 0
243 -240 25 -28 0
243 -240 -25 28 0
-243 240 25 -28 0
-243 240 -25 28 0
243 240 -242 25 28 -26 0
243 240 -242 -25 -28 -26 0
-243 -240 -242 25 28 -26 0
-243 -240 -242 -25 -28 -26 0
245 242 -25 0
245 -242 25 0
-245 242 25 0
-245 -242 -25 0
244 28 -26 0
244 -28 26 0
-244 28 26 0
-244 -28 -26 0
246 -243 245 0
246 -243 24 0
-246 243 245 0
-246 243 24 0
246 -243 23 -26 0
246 -243 -23 26 0
-246 243 23 -26 0
-246 243 -23 26 0
246 243 -245 23 26 -24 0
246 243 -245 -23 -26 -24 0
-246 -243 -245 23 26 -24 0
-246 -243 -245 -23 -26 -24 0
248 245 -23 0
248 -245 23 0
-248 245 23 0
-248 -245 -23 0
247 26 -24 0
247 -26 24 0
-247 26 24 0
-247 -26 -24 0
249 -246 248 0
249 -246 22 0
-249 246 248 0
-249 246 22 0
249 -246 21 -24 0
249 -246 -21 24 0
-249 246 21 -24 0
-249 246 -21 24 0
249 246 -248 21 24 -22 0
249 246 -248 -21 -24 -22 0
-249 -246 -248 21 24 -22 0
-249 -246 -248 -21 -24 -22 0
251 248 -21 0
251 -248 21 0
-251 248 21 0
-251 -248 -21 0
250 24 -22 0
250 -24 22 0
-250 24 22 0
-250 -24 -22 0
252 -249 251 0
252 -249 20 0
-252 249 251 0
-252 249 20 0
252 -249 19 -22 0
252 -249 -19 22 0
-252 249 19 -22 0
-252 249 -19 22 0
252 249 -251 19 22 -20 0
252 249 -251 -19 -22 -20 0
-252 -249 -251 19 22 -20 0
-252 -249 -251 -19 -22 -20 0
254 251 -19 0
254 -251 19 0
-254 251 19 0
-254 -251 -19 0
253 22 -20 0
253 -22 20 0
-253 22 20 0
-253 -22 -20 0
255 -252 254 0
255 -252 18 0
-255 252 254 0
-255 252 18 0
255 -252 17 -20 0
255 -252 -17 20 0
-255 252 17 -20 0
-255 252 -17 20 0
255 252 -254 17 20 -18 0
255 252 -254 -17 -20 -18 0
-255 -252 -254 17 20 -18 0
-255 -252 -254 -17 -20 -18 0
257 254 -17 0
257 -254 17 0
-257 254 17 0
-257 -254 -17 0
256 20 -18 0
256 -20 18 0
-256 20 18 0
-256 -20 -18 0
258 -255 257 0
258 -255 16 0
-258 255 257 0
-258 255 16 0
258 -255 15 -18 0
258 -255 -15 18 0
-258 255 15 -18 0
-258 255 -15 18 0
258 255 -257 15 18 -16 0
258 255 -257 -15 -18 -16 0
-258 -255 -257 15 18 -16 0
-258 -255 -257 -15 -18 -16 0
260 257 -15 0
260 -257 15 0
-260 257 15 0
-260 -257 -15 0
259 18 -16 0
259 -18 16 0
-259 18 16 0
-259 -18 -16 0
261 -258 260 0
261 -258 14 0
-261 258 260 0
-261 258 14 0
261 -258 13 -16 0
261 -258 -13 16 0
-261 258 13 -16 0
-261 258 -13 16 0
261 258 -260 13 16 -14 0
261 258 -260 -13 -16 -14 0
-261 -258 -260 13 16 -14 0
-261 -258 -260 -13 -16 -14 0
263 260 -13 0
263 -260 13 0
-263 260 13 0
-263 -260 -13 0
262 16 -14 0
262 -16 14 0
-262 16 14 0
-262 -16 -14 0
264 -261 263 0
264 -261 12 0
-264 261 263 0
-264 261 12 0
264 -261 11 -14 0
264 -261 -11 14 0
-264 261 11 -14 0
-264 261 -11 14 0
264 261 -263 11 14 -12 0
264 261 -263 -11 -14 -12 0
-264 -261 -263 11 14 -12 0
-264 -261 -263 -11 -14 -12 0
266 263 -11 0
266 -263 11 0
-266 263 11 0
-266 -263 -11 0
265 14 -12 0
265 -14 12 0
-265 14 12 0
-265 -14 -12 0
267 -264 266 0
267 -264 10 0
-267 264 266 0
-267 264 10 0
267 -264 9 -12 0
267 -264 -9 12 0
-267 264 9 -12 0
-267 264 -9 12 0
267 264 -266 9 12 -10 0
267 264 -266 -9 -12 -10 0
-267 -264 -266 9 12 -10 0
-267 -264 -266 -9 -12 -10 0
269 266 -9 0
269 -266 9 0
-269 266 9 0
-269 -266 -9 0
268 12 -10 0
268 -12 10 0
-268 12 10 0
-268 -12 -10 0
270 -267 269 0
270 -267 8 0
-270 267 269 0
-270 267 8 0
270 -267 7 -10 0
270 -267 -7 10 0
-270 267 7 -10 0
-270 267 -7 10 0
270 267 -269 7 10 -8 0
270 267 -269 -7 -10 -8 0
-270 -267 -269 7 10 -8 0
-270 -267 -269 -7 -10 -8 0
272 269 -7 0
272 -269 7 0
-272 269 7 0
-272 -269 -7 0
271 10 -8 0
271 -10 8 0
-271 10 8 0
-271 -10 -8 0
273 -270 272 0
273 -270 6 0
-273 270 272 0
-273 270 6 0
273 -270 5 -8 0
273 -270 -5 8 0
-273 270 5 -8 0
-273 270 -5 8 0
273 270 -272 5 8 -6 0
273 270 -272 -5 -8 -6 0
-273 -270 -272 5 8 -6 0
-273 -270 -272 -5 -8 -6 0
275 272 -5 0
275 -272 5 0
-275 272 5 0
-275 -272 -5 0
274 8 -6 0
274 -8 6 0
-274 8 6 0
-274 -8 -6 0
276 -273 275 0
276 -273 4 0
-276 273 275 0
-276 273 4 0
276 -273 3 -6 0
276 -273 -3 6 0
-276 273 3 -6 0
-276 273 -3 6 0
276 273 -275 3 6 -4 0
276 273 -275 -3 -6 -4 0
-276 -273 -275 3 6 -4 0
-276 -273 -275 -3 -6 -4 0
278 275 -3 0
278 -275 3 0
-278 275 3 0
-278 -275 -3 0
277 6 -4 0
277 -6 4 0
-277 6 4 0
-277 -6 -4 0
279 -276 278 0
279 -276 2 0
-279 276 278 0
-279 276 2 0
279 -276 1 -4 0
279 -276 -1 4 0
-279 276 1 -4 0
-279 276 -1 4 0
279 276 -278 1 4 -2 0
279 276 -278 -1 -4 -2 0
-279 -276 -278 1 4 -2 0
-279 -276 -278 -1 -4 -2 0
281 278 -1 0
281 -278 1 0
-281 278 1 0
-281 -278 -1 0
280 4 -2 0
280 -4 2 0
-280 4 2 0
-280 -4 -2 0
-281 0
-278 0
-280 0
-275 0
-277 0
-272 0
-274 0
-269 0
-271 0
-266 0
-268 0
-263 0
-265 0
-260 0
-262 0
-257 0
-259 0
-254 0
-256 0
-251 0
-253 0
-248 0
-250 0
-245 0
-247 0
-242 0
-244 0
-239 0
-241 0
-236 0
-238 0
-233 0
-235 0
-230 0
-232 0
-227 0
-229 0
-224 0
-226 0
-221 0
-223 0
-218 0
-220 0
-215 0
-217 0
-212 0
-214 0
-209 0
-211 0
-206 0
-208 0
-203 0
-205 0
-200 0
-202 0
-197 0
-199 0
-194 0
-196 0
-191 0
-193 0
-188 0
-190 0
-185 0
-187 0
-182 0
-184 0
-179 0
-181 0
-176 0
-178 0
-173 0
-175 0
-170 0
-172 0
-167 0
-169 0
-164 0
-166 0
-161 0
-163 0
-158 0
-160 0
-155 0
-157 0
-152 0
-154 0
-149 0
-151 0
-146 0
-148 0
-143 0
-145 0
-140 0
-142 0
-137 0
-139 0
-134 0
-136 0
-131 0
-133 0
-128 0
-130 0
-125 0
-127 0
-122 0
-124 0
-115 0
-121 0
